certificates/rado_a10_c128_N19.drat
-17 -19 0
d -17 -13 -19 0
13 -14 -19 0
-14 -19 0
d -7 -14 -19 0
-13 -5 0
-19 0
13 14 0
14 0
-2 0
-13 0
11 0
15 0
17 0
4 0
-3 0
-5 0
-16 0
-12 0
1 0
0
